p tdp 87 86
33 18
61 29
72 56
35 37
75 23
27 20
59 44
46 54
73 19
28 50
32 10
64 86
6 60
77 34
63 9
64 40
38 82
32 15
7 34
86 28
59 12
79 83
41 85
12 31
26 6
17 69
71 51
73 43
82 25
5 48
76 68
87 54
52 43
71 47
14 24
62 54
61 47
30 85
66 75
22 58
72 36
76 55
6 11
67 82
70 29
39 57
8 17
75 24
18 53
1 2
35 83
15 4
58 55
13 21
22 81
44 65
37 39
85 58
42 27
70 53
77 21
5 78
80 73
52 32
36 44
9 39
49 67
27 1
84 3
12 50
60 16
83 74
81 45
86 80
71 75
16 55
13 75
48 3
41 10
69 54
65 42
17 51
64 38
79 43
80 77
5 36
